c User generated cnf file
p cnf 14 62
-6 11 9 0 
1 6 -4 0 
-8 5 12 0 
6 12 -6 0 
6 2 -4 0 
-3 9 11 0 
2 10 -8 0 
3 -10 2 0 
-4 10 12 0 
13 12 -13 0 
8 11 -10 0 
-13 8 4 0 
9 2 -9 0 
8 6 -8 0 
-8 8 2 0 
4 -9 6 0 
13 13 -8 0 
3 6 -9 0 
9 11 -3 0 
12 4 -9 0 
3 -14 11 0 
-1 14 1 0 
4 -9 1 0 
-10 2 13 0 
7 -11 12 0 
8 -13 4 0 
1 -11 14 0 
10 -6 14 0 
2 7 -10 0 
-8 8 9 0 
8 -12 12 0 
-2 6 8 0 
6 4 -14 0 
13 -8 10 0 
14 -5 5 0 
8 -13 3 0 
1 4 -13 0 
9 7 -7 0 
-1 2 12 0 
-3 2 6 0 
7 -6 1 0 
-7 6 10 0 
-9 8 1 0 
-6 5 2 0 
2 -13 7 0 
3 10 -14 0 
9 12 -6 0 
-2 8 5 0 
-4 1 14 0 
-10 6 12 0 
1 14 -1 0 
-6 11 8 0 
-7 11 14 0 
-3 8 14 0 
3 -2 7 0 
-4 5 10 0 
2 9 -12 0 
-4 7 7 0 
7 14 -11 0 
11 -8 2 0 
-5 3 6 0 
3 2 -5 0 
